c nIsolatedPIs 0
c maxPI 32
p cnf 332 901
c gate 33 -6 -22 0
-6 -33 0
-22 -33 0
6 22 33 0
c gate 34 5 21 0
5 -34 0
21 -34 0
-5 -21 34 0
c gate 35 4 20 0
4 -35 0
20 -35 0
-4 -20 35 0
c gate 36 3 19 0
3 -36 0
19 -36 0
-3 -19 36 0
c gate 37 -2 18 0
-2 -37 0
18 -37 0
2 -18 37 0
c gate 38 2 -18 0
2 -38 0
-18 -38 0
-2 18 38 0
c gate 39 -37 -38 0
-37 -39 0
-38 -39 0
37 38 39 0
c gate 40 1 17 0
1 -40 0
17 -40 0
-1 -17 40 0
c gate 41 -39 40 0
-39 -41 0
40 -41 0
39 -40 41 0
c gate 42 2 18 0
2 -42 0
18 -42 0
-2 -18 42 0
c gate 43 -41 -42 0
-41 -43 0
-42 -43 0
41 42 43 0
c gate 44 18 -43 0
18 -44 0
-43 -44 0
-18 43 44 0
c gate 45 -36 -44 0
-36 -45 0
-44 -45 0
36 44 45 0
c gate 46 -4 -20 0
-4 -46 0
-20 -46 0
4 20 46 0
c gate 47 -35 -46 0
-35 -47 0
-46 -47 0
35 46 47 0
c gate 48 -45 47 0
-45 -48 0
47 -48 0
45 -47 48 0
c gate 49 -35 -48 0
-35 -49 0
-48 -49 0
35 48 49 0
c gate 50 -34 49 0
-34 -50 0
49 -50 0
34 -49 50 0
c gate 51 -33 -50 0
-33 -51 0
-50 -51 0
33 50 51 0
c gate 52 7 -23 0
7 -52 0
-23 -52 0
-7 23 52 0
c gate 53 -7 23 0
-7 -53 0
23 -53 0
7 -23 53 0
c gate 54 -52 -53 0
-52 -54 0
-53 -54 0
52 53 54 0
c gate 55 -51 -54 0
-51 -55 0
-54 -55 0
51 54 55 0
c gate 56 51 54 0
51 -56 0
54 -56 0
-51 -54 56 0
c gate 57 -55 -56 0
-55 -57 0
-56 -57 0
55 56 57 0
c gate 58 6 22 0
6 -58 0
22 -58 0
-6 -22 58 0
c gate 59 -5 21 0
-5 -59 0
21 -59 0
5 -21 59 0
c gate 60 5 -21 0
5 -60 0
-21 -60 0
-5 21 60 0
c gate 61 -59 -60 0
-59 -61 0
-60 -61 0
59 60 61 0
c gate 62 -3 19 0
-3 -62 0
19 -62 0
3 -19 62 0
c gate 63 3 -19 0
3 -63 0
-19 -63 0
-3 19 63 0
c gate 64 -62 -63 0
-62 -64 0
-63 -64 0
62 63 64 0
c gate 65 -43 -64 0
-43 -65 0
-64 -65 0
43 64 65 0
c gate 66 -36 -65 0
-36 -66 0
-65 -66 0
36 65 66 0
c gate 67 47 66 0
47 -67 0
66 -67 0
-47 -66 67 0
c gate 68 -46 -67 0
-46 -68 0
-67 -68 0
46 67 68 0
c gate 69 -61 68 0
-61 -69 0
68 -69 0
61 -68 69 0
c gate 70 -34 -69 0
-34 -70 0
-69 -70 0
34 69 70 0
c gate 71 6 -22 0
6 -71 0
-22 -71 0
-6 22 71 0
c gate 72 -6 22 0
-6 -72 0
22 -72 0
6 -22 72 0
c gate 73 -71 -72 0
-71 -73 0
-72 -73 0
71 72 73 0
c gate 74 -70 -73 0
-70 -74 0
-73 -74 0
70 73 74 0
c gate 75 -58 -74 0
-58 -75 0
-74 -75 0
58 74 75 0
c gate 76 -54 -75 0
-54 -76 0
-75 -76 0
54 75 76 0
c gate 77 54 75 0
54 -77 0
75 -77 0
-54 -75 77 0
c gate 78 -76 -77 0
-76 -78 0
-77 -78 0
76 77 78 0
c gate 79 -57 -78 0
-57 -79 0
-78 -79 0
57 78 79 0
c gate 80 57 78 0
57 -80 0
78 -80 0
-57 -78 80 0
c gate 81 -79 -80 0
-79 -81 0
-80 -81 0
79 80 81 0
c gate 82 12 28 0
12 -82 0
28 -82 0
-12 -28 82 0
c gate 83 -12 28 0
-12 -83 0
28 -83 0
12 -28 83 0
c gate 84 12 -28 0
12 -84 0
-28 -84 0
-12 28 84 0
c gate 85 -83 -84 0
-83 -85 0
-84 -85 0
83 84 85 0
c gate 86 11 27 0
11 -86 0
27 -86 0
-11 -27 86 0
c gate 87 10 26 0
10 -87 0
26 -87 0
-10 -26 87 0
c gate 88 9 25 0
9 -88 0
25 -88 0
-9 -25 88 0
c gate 89 8 24 0
8 -89 0
24 -89 0
-8 -24 89 0
c gate 90 -7 -23 0
-7 -90 0
-23 -90 0
7 23 90 0
c gate 91 -55 -90 0
-55 -91 0
-90 -91 0
55 90 91 0
c gate 92 -89 -91 0
-89 -92 0
-91 -92 0
89 91 92 0
c gate 93 -9 -25 0
-9 -93 0
-25 -93 0
9 25 93 0
c gate 94 -88 -93 0
-88 -94 0
-93 -94 0
88 93 94 0
c gate 95 -92 94 0
-92 -95 0
94 -95 0
92 -94 95 0
c gate 96 -88 -95 0
-88 -96 0
-95 -96 0
88 95 96 0
c gate 97 -10 -26 0
-10 -97 0
-26 -97 0
10 26 97 0
c gate 98 -87 -97 0
-87 -98 0
-97 -98 0
87 97 98 0
c gate 99 -96 98 0
-96 -99 0
98 -99 0
96 -98 99 0
c gate 100 -87 -99 0
-87 -100 0
-99 -100 0
87 99 100 0
c gate 101 -11 -27 0
-11 -101 0
-27 -101 0
11 27 101 0
c gate 102 -86 -101 0
-86 -102 0
-101 -102 0
86 101 102 0
c gate 103 -100 102 0
-100 -103 0
102 -103 0
100 -102 103 0
c gate 104 -86 -103 0
-86 -104 0
-103 -104 0
86 103 104 0
c gate 105 -85 -104 0
-85 -105 0
-104 -105 0
85 104 105 0
c gate 106 -82 -105 0
-82 -106 0
-105 -106 0
82 105 106 0
c gate 107 16 -32 0
16 -107 0
-32 -107 0
-16 32 107 0
c gate 108 -16 32 0
-16 -108 0
32 -108 0
16 -32 108 0
c gate 109 -107 -108 0
-107 -109 0
-108 -109 0
107 108 109 0
c gate 110 15 31 0
15 -110 0
31 -110 0
-15 -31 110 0
c gate 111 -15 -31 0
-15 -111 0
-31 -111 0
15 31 111 0
c gate 112 14 30 0
14 -112 0
30 -112 0
-14 -30 112 0
c gate 113 -13 -29 0
-13 -113 0
-29 -113 0
13 29 113 0
c gate 114 -14 -30 0
-14 -114 0
-30 -114 0
14 30 114 0
c gate 115 -113 -114 0
-113 -115 0
-114 -115 0
113 114 115 0
c gate 116 -12 -28 0
-12 -116 0
-28 -116 0
12 28 116 0
c gate 117 7 23 0
7 -117 0
23 -117 0
-7 -23 117 0
c gate 118 -76 -117 0
-76 -118 0
-117 -118 0
76 117 118 0
c gate 119 -8 24 0
-8 -119 0
24 -119 0
8 -24 119 0
c gate 120 8 -24 0
8 -120 0
-24 -120 0
-8 24 120 0
c gate 121 -119 -120 0
-119 -121 0
-120 -121 0
119 120 121 0
c gate 122 -118 -121 0
-118 -122 0
-121 -122 0
118 121 122 0
c gate 123 -89 -122 0
-89 -123 0
-122 -123 0
89 122 123 0
c gate 124 94 123 0
94 -124 0
123 -124 0
-94 -123 124 0
c gate 125 -93 -124 0
-93 -125 0
-124 -125 0
93 124 125 0
c gate 126 98 -125 0
98 -126 0
-125 -126 0
-98 125 126 0
c gate 127 -97 -101 0
-97 -127 0
-101 -127 0
97 101 127 0
c gate 128 -126 127 0
-126 -128 0
127 -128 0
126 -127 128 0
c gate 129 -86 -128 0
-86 -129 0
-128 -129 0
86 128 129 0
c gate 130 -116 -129 0
-116 -130 0
-129 -130 0
116 129 130 0
c gate 131 13 29 0
13 -131 0
29 -131 0
-13 -29 131 0
c gate 132 -82 -131 0
-82 -132 0
-131 -132 0
82 131 132 0
c gate 133 -130 132 0
-130 -133 0
132 -133 0
130 -132 133 0
c gate 134 115 -133 0
115 -134 0
-133 -134 0
-115 133 134 0
c gate 135 -112 -134 0
-112 -135 0
-134 -135 0
112 134 135 0
c gate 136 -111 -135 0
-111 -136 0
-135 -136 0
111 135 136 0
c gate 137 -110 -136 0
-110 -137 0
-136 -137 0
110 136 137 0
c gate 138 -109 137 0
-109 -138 0
137 -138 0
109 -137 138 0
c gate 139 109 -137 0
109 -139 0
-137 -139 0
-109 137 139 0
c gate 140 -138 -139 0
-138 -140 0
-139 -140 0
138 139 140 0
c gate 141 106 -131 0
106 -141 0
-131 -141 0
-106 131 141 0
c gate 142 115 -141 0
115 -142 0
-141 -142 0
-115 141 142 0
c gate 143 -112 -142 0
-112 -143 0
-142 -143 0
112 142 143 0
c gate 144 -111 -143 0
-111 -144 0
-143 -144 0
111 143 144 0
c gate 145 -110 -144 0
-110 -145 0
-144 -145 0
110 144 145 0
c gate 146 109 -145 0
109 -146 0
-145 -146 0
-109 145 146 0
c gate 147 -109 145 0
-109 -147 0
145 -147 0
109 -145 147 0
c gate 148 -146 -147 0
-146 -148 0
-147 -148 0
146 147 148 0
c gate 149 140 -148 0
140 -149 0
-148 -149 0
-140 148 149 0
c gate 150 106 149 0
106 -150 0
149 -150 0
-106 -149 150 0
c gate 151 92 -94 0
92 -151 0
-94 -151 0
-92 94 151 0
c gate 152 -95 -151 0
-95 -152 0
-151 -152 0
95 151 152 0
c gate 153 -94 -123 0
-94 -153 0
-123 -153 0
94 123 153 0
c gate 154 -124 -153 0
-124 -154 0
-153 -154 0
124 153 154 0
c gate 155 152 154 0
152 -155 0
154 -155 0
-152 -154 155 0
c gate 156 -152 -154 0
-152 -156 0
-154 -156 0
152 154 156 0
c gate 157 -155 -156 0
-155 -157 0
-156 -157 0
155 156 157 0
c gate 158 118 121 0
118 -158 0
121 -158 0
-118 -121 158 0
c gate 159 -122 -158 0
-122 -159 0
-158 -159 0
122 158 159 0
c gate 160 91 121 0
91 -160 0
121 -160 0
-91 -121 160 0
c gate 161 -91 -121 0
-91 -161 0
-121 -161 0
91 121 161 0
c gate 162 -160 -161 0
-160 -162 0
-161 -162 0
160 161 162 0
c gate 163 -159 -162 0
-159 -163 0
-162 -163 0
159 162 163 0
c gate 164 159 162 0
159 -164 0
162 -164 0
-159 -162 164 0
c gate 165 70 73 0
70 -165 0
73 -165 0
-70 -73 165 0
c gate 166 -74 -165 0
-74 -166 0
-165 -166 0
74 165 166 0
c gate 167 50 73 0
50 -167 0
73 -167 0
-50 -73 167 0
c gate 168 -50 -73 0
-50 -168 0
-73 -168 0
50 73 168 0
c gate 169 -167 -168 0
-167 -169 0
-168 -169 0
167 168 169 0
c gate 170 -166 169 0
-166 -170 0
169 -170 0
166 -169 170 0
c gate 171 61 -68 0
61 -171 0
-68 -171 0
-61 68 171 0
c gate 172 -69 -171 0
-69 -172 0
-171 -172 0
69 171 172 0
c gate 173 49 -61 0
49 -173 0
-61 -173 0
-49 61 173 0
c gate 174 -49 61 0
-49 -174 0
61 -174 0
49 -61 174 0
c gate 175 -173 -174 0
-173 -175 0
-174 -175 0
173 174 175 0
c gate 176 172 175 0
172 -176 0
175 -176 0
-172 -175 176 0
c gate 177 166 -169 0
166 -177 0
-169 -177 0
-166 169 177 0
c gate 178 -170 -177 0
-170 -178 0
-177 -178 0
170 177 178 0
c gate 179 -176 178 0
-176 -179 0
178 -179 0
176 -178 179 0
c gate 180 -170 -179 0
-170 -180 0
-179 -180 0
170 179 180 0
c gate 181 -80 -180 0
-80 -181 0
-180 -181 0
80 180 181 0
c gate 182 18 -64 0
18 -182 0
-64 -182 0
-18 64 182 0
c gate 183 -43 -182 0
-43 -183 0
-182 -183 0
43 182 183 0
c gate 184 -172 -175 0
-172 -184 0
-175 -184 0
172 175 184 0
c gate 185 -2 65 0
-2 -185 0
65 -185 0
2 -65 185 0
c gate 186 -47 -66 0
-47 -186 0
-66 -186 0
47 66 186 0
c gate 187 -67 -186 0
-67 -187 0
-186 -187 0
67 186 187 0
c gate 188 45 -47 0
45 -188 0
-47 -188 0
-45 47 188 0
c gate 189 -48 -188 0
-48 -189 0
-188 -189 0
48 188 189 0
c gate 190 187 189 0
187 -190 0
189 -190 0
-187 -189 190 0
c gate 191 -185 -190 0
-185 -191 0
-190 -191 0
185 190 191 0
c gate 192 -184 191 0
-184 -192 0
191 -192 0
184 -191 192 0
c gate 193 179 192 0
179 -193 0
192 -193 0
-179 -192 193 0
c gate 194 183 193 0
183 -194 0
193 -194 0
-183 -193 194 0
c gate 195 181 -194 0
181 -195 0
-194 -195 0
-181 194 195 0
c gate 196 -79 -195 0
-79 -196 0
-195 -196 0
79 195 196 0
c gate 197 -164 -196 0
-164 -197 0
-196 -197 0
164 196 197 0
c gate 198 -163 -197 0
-163 -198 0
-197 -198 0
163 197 198 0
c gate 199 157 -198 0
157 -199 0
-198 -199 0
-157 198 199 0
c gate 200 -104 -129 0
-104 -200 0
-129 -200 0
104 129 200 0
c gate 201 85 128 0
85 -201 0
128 -201 0
-85 -128 201 0
c gate 202 -105 -201 0
-105 -202 0
-201 -202 0
105 201 202 0
c gate 203 -200 -202 0
-200 -203 0
-202 -203 0
200 202 203 0
c gate 204 100 -102 0
100 -204 0
-102 -204 0
-100 102 204 0
c gate 205 96 -98 0
96 -205 0
-98 -205 0
-96 98 205 0
c gate 206 -99 -205 0
-99 -206 0
-205 -206 0
99 205 206 0
c gate 207 -98 125 0
-98 -207 0
125 -207 0
98 -125 207 0
c gate 208 -126 -207 0
-126 -208 0
-207 -208 0
126 207 208 0
c gate 209 206 208 0
206 -209 0
208 -209 0
-206 -208 209 0
c gate 210 -206 -208 0
-206 -210 0
-208 -210 0
206 208 210 0
c gate 211 -209 -210 0
-209 -211 0
-210 -211 0
209 210 211 0
c gate 212 98 -211 0
98 -212 0
-211 -212 0
-98 211 212 0
c gate 213 -204 212 0
-204 -213 0
212 -213 0
204 -212 213 0
c gate 214 156 -209 0
156 -214 0
-209 -214 0
-156 209 214 0
c gate 215 -210 -214 0
-210 -215 0
-214 -215 0
210 214 215 0
c gate 216 -212 215 0
-212 -216 0
215 -216 0
212 -215 216 0
c gate 217 -213 -216 0
-213 -217 0
-216 -217 0
213 216 217 0
c gate 218 -203 -217 0
-203 -218 0
-217 -218 0
203 217 218 0
c gate 219 -157 218 0
-157 -219 0
218 -219 0
157 -218 219 0
c gate 220 -85 102 0
-85 -220 0
102 -220 0
85 -102 220 0
c gate 221 212 220 0
212 -221 0
220 -221 0
-212 -220 221 0
c gate 222 -219 -221 0
-219 -222 0
-221 -222 0
219 221 222 0
c gate 223 -140 148 0
-140 -223 0
148 -223 0
140 -148 223 0
c gate 224 -14 30 0
-14 -224 0
30 -224 0
14 -30 224 0
c gate 225 14 -30 0
14 -225 0
-30 -225 0
-14 30 225 0
c gate 226 -224 -225 0
-224 -226 0
-225 -226 0
224 225 226 0
c gate 227 -110 -111 0
-110 -227 0
-111 -227 0
110 111 227 0
c gate 228 -13 29 0
-13 -228 0
29 -228 0
13 -29 228 0
c gate 229 13 -29 0
13 -229 0
-29 -229 0
-13 29 229 0
c gate 230 -228 -229 0
-228 -230 0
-229 -230 0
228 229 230 0
c gate 231 227 -230 0
227 -231 0
-230 -231 0
-227 230 231 0
c gate 232 -226 231 0
-226 -232 0
231 -232 0
226 -231 232 0
c gate 233 -128 -232 0
-128 -233 0
-232 -233 0
128 232 233 0
c gate 234 -103 232 0
-103 -234 0
232 -234 0
103 -232 234 0
c gate 235 -85 -234 0
-85 -235 0
-234 -235 0
85 234 235 0
c gate 236 -233 235 0
-233 -236 0
235 -236 0
233 -235 236 0
c gate 237 -200 236 0
-200 -237 0
236 -237 0
200 -236 237 0
c gate 238 -149 237 0
-149 -238 0
237 -238 0
149 -237 238 0
c gate 239 -223 -238 0
-223 -239 0
-238 -239 0
223 238 239 0
c gate 240 -222 239 0
-222 -240 0
239 -240 0
222 -239 240 0
c gate 241 -199 -240 0
-199 -241 0
-240 -241 0
199 240 241 0
c gate 242 138 144 0
138 -242 0
144 -242 0
-138 -144 242 0
c gate 243 -241 -242 0
-241 -243 0
-242 -243 0
241 242 243 0
c gate 244 -150 -243 0
-150 -244 0
-243 -244 0
150 243 244 0
c gate 245 4 -20 0
4 -245 0
-20 -245 0
-4 20 245 0
c gate 246 -1 17 0
-1 -246 0
17 -246 0
1 -17 246 0
c gate 247 -37 -246 0
-37 -247 0
-246 -247 0
37 246 247 0
c gate 248 -38 -63 0
-38 -248 0
-63 -248 0
38 63 248 0
c gate 249 -247 248 0
-247 -249 0
248 -249 0
247 -248 249 0
c gate 250 -62 -249 0
-62 -250 0
-249 -250 0
62 249 250 0
c gate 251 245 -250 0
245 -251 0
-250 -251 0
-245 250 251 0
c gate 252 -244 -251 0
-244 -252 0
-251 -252 0
244 251 252 0
c gate 253 54 61 0
54 -253 0
61 -253 0
-54 -61 253 0
c gate 254 73 253 0
73 -254 0
253 -254 0
-73 -253 254 0
c gate 255 251 254 0
251 -255 0
254 -255 0
-251 -254 255 0
c gate 256 -252 -255 0
-252 -256 0
-255 -256 0
252 255 256 0
c gate 257 -15 31 0
-15 -257 0
31 -257 0
15 -31 257 0
c gate 258 -11 27 0
-11 -258 0
27 -258 0
11 -27 258 0
c gate 259 10 -26 0
10 -259 0
-26 -259 0
-10 26 259 0
c gate 260 11 -27 0
11 -260 0
-27 -260 0
-11 27 260 0
c gate 261 -259 -260 0
-259 -261 0
-260 -261 0
259 260 261 0
c gate 262 -47 250 0
-47 -262 0
250 -262 0
47 -250 262 0
c gate 263 -60 -245 0
-60 -263 0
-245 -263 0
60 245 263 0
c gate 264 -262 263 0
-262 -264 0
263 -264 0
262 -263 264 0
c gate 265 -59 -264 0
-59 -265 0
-264 -265 0
59 264 265 0
c gate 266 -71 -265 0
-71 -266 0
-265 -266 0
71 265 266 0
c gate 267 -53 -72 0
-53 -267 0
-72 -267 0
53 72 267 0
c gate 268 -266 267 0
-266 -268 0
267 -268 0
266 -267 268 0
c gate 269 -52 -268 0
-52 -269 0
-268 -269 0
52 268 269 0
c gate 270 -119 -269 0
-119 -270 0
-269 -270 0
119 269 270 0
c gate 271 9 -25 0
9 -271 0
-25 -271 0
-9 25 271 0
c gate 272 -120 -271 0
-120 -272 0
-271 -272 0
120 271 272 0
c gate 273 -270 272 0
-270 -273 0
272 -273 0
270 -272 273 0
c gate 274 -10 26 0
-10 -274 0
26 -274 0
10 -26 274 0
c gate 275 -9 25 0
-9 -275 0
25 -275 0
9 -25 275 0
c gate 276 -274 -275 0
-274 -276 0
-275 -276 0
274 275 276 0
c gate 277 -273 276 0
-273 -277 0
276 -277 0
273 -276 277 0
c gate 278 261 -277 0
261 -278 0
-277 -278 0
-261 277 278 0
c gate 279 -258 -278 0
-258 -279 0
-278 -279 0
258 278 279 0
c gate 280 261 272 0
261 -280 0
272 -280 0
-261 -272 280 0
c gate 281 255 280 0
255 -281 0
280 -281 0
-255 -280 281 0
c gate 282 -83 -281 0
-83 -282 0
-281 -282 0
83 281 282 0
c gate 283 279 282 0
279 -283 0
282 -283 0
-279 -282 283 0
c gate 284 -84 -229 0
-84 -284 0
-229 -284 0
84 229 284 0
c gate 285 -283 284 0
-283 -285 0
284 -285 0
283 -284 285 0
c gate 286 -228 -285 0
-228 -286 0
-285 -286 0
228 285 286 0
c gate 287 -225 -286 0
-225 -287 0
-286 -287 0
225 286 287 0
c gate 288 -224 -287 0
-224 -288 0
-287 -288 0
224 287 288 0
c gate 289 15 -31 0
15 -289 0
-31 -289 0
-15 31 289 0
c gate 290 -288 -289 0
-288 -290 0
-289 -290 0
288 289 290 0
c gate 291 -257 -290 0
-257 -291 0
-290 -291 0
257 290 291 0
c gate 292 109 -291 0
109 -292 0
-291 -292 0
-109 291 292 0
c gate 293 -84 -279 0
-84 -293 0
-279 -293 0
84 279 293 0
c gate 294 -83 -228 0
-83 -294 0
-228 -294 0
83 228 294 0
c gate 295 -293 294 0
-293 -295 0
294 -295 0
293 -294 295 0
c gate 296 -229 -295 0
-229 -296 0
-295 -296 0
229 295 296 0
c gate 297 -224 -296 0
-224 -297 0
-296 -297 0
224 296 297 0
c gate 298 -225 -297 0
-225 -298 0
-297 -298 0
225 297 298 0
c gate 299 -257 -298 0
-257 -299 0
-298 -299 0
257 298 299 0
c gate 300 -289 -299 0
-289 -300 0
-299 -300 0
289 299 300 0
c gate 301 109 300 0
109 -301 0
300 -301 0
-109 -300 301 0
c gate 302 290 299 0
290 -302 0
299 -302 0
-290 -299 302 0
c gate 303 -301 -302 0
-301 -303 0
-302 -303 0
301 302 303 0
c gate 304 -292 -303 0
-292 -304 0
-303 -304 0
292 303 304 0
c gate 305 227 -288 0
227 -305 0
-288 -305 0
-227 288 305 0
c gate 306 -298 305 0
-298 -306 0
305 -306 0
298 -305 306 0
c gate 307 -227 288 0
-227 -307 0
288 -307 0
227 -288 307 0
c gate 308 298 307 0
298 -308 0
307 -308 0
-298 -307 308 0
c gate 309 -94 -98 0
-94 -309 0
-98 -309 0
94 98 309 0
c gate 310 -102 121 0
-102 -310 0
121 -310 0
102 -121 310 0
c gate 311 309 310 0
309 -311 0
310 -311 0
-309 -310 311 0
c gate 312 -269 -311 0
-269 -312 0
-311 -312 0
269 311 312 0
c gate 313 85 230 0
85 -313 0
230 -313 0
-85 -230 313 0
c gate 314 280 -313 0
280 -314 0
-313 -314 0
-280 313 314 0
c gate 315 279 314 0
279 -315 0
314 -315 0
-279 -314 315 0
c gate 316 -312 -315 0
-312 -316 0
-315 -316 0
312 315 316 0
c gate 317 255 -316 0
255 -317 0
-316 -317 0
-255 316 317 0
c gate 318 -226 -286 0
-226 -318 0
-286 -318 0
226 286 318 0
c gate 319 -296 318 0
-296 -319 0
318 -319 0
296 -318 319 0
c gate 320 -317 -319 0
-317 -320 0
-319 -320 0
317 319 320 0
c gate 321 -308 320 0
-308 -321 0
320 -321 0
308 -320 321 0
c gate 322 -306 321 0
-306 -322 0
321 -322 0
306 -321 322 0
c gate 323 -304 322 0
-304 -323 0
322 -323 0
304 -322 323 0
c gate 324 -256 323 0
-256 -324 0
323 -324 0
256 -323 324 0
c gate 325 -180 -194 0
-180 -325 0
-194 -325 0
180 194 325 0
c gate 326 324 -325 0
324 -326 0
-325 -326 0
-324 325 326 0
c gate 327 -180 -193 0
-180 -327 0
-193 -327 0
180 193 327 0
c gate 328 -324 327 0
-324 -328 0
327 -328 0
324 -327 328 0
c gate 329 -326 -328 0
-326 -329 0
-328 -329 0
326 328 329 0
c gate 330 81 -329 0
81 -330 0
-329 -330 0
-81 329 330 0
c gate 331 -81 329 0
-81 -331 0
329 -331 0
81 -329 331 0
c gate 332 -330 -331 0
-330 -332 0
-331 -332 0
330 331 332 0
c PO
-332 0
